166	32	4	88	
8	9	9	9

0	0	0	0	0	0	4	1	2	3	4
1	1	5	0	2	3	1	6
2	0	9	0	0	10	1	16
3	7	0	0	5	4	1	5
4	0	0	6	2	2	1	7
5	0	4	0	5	7	1	8
6	3	0	0	5	9	2	11	14
7	6	0	3	7	5	1	9
8	0	0	8	0	7	2	22	26
9	0	0	0	9	9	1	10
10	8	3	9	0	4	1	11
11	7	0	0	1	1	2	12	24
12	0	4	0	0	8	1	13
13	0	8	2	8	1	2	16	17
14	0	0	7	0	6	1	15
15	0	7	0	8	1	1	18
16	1	0	0	0	7	2	20	26
17	3	0	7	0	3	1	23
18	5	0	3	7	9	1	19
19	0	3	0	1	9	1	21
20	2	7	1	1	2	1	22
21	0	0	0	2	9	1	24
22	5	9	0	4	2	1	27
23	8	0	0	0	5	1	26
24	2	0	3	4	7	1	25
25	3	9	0	6	9	1	29
26	4	7	0	5	6	1	28
27	0	0	0	4	8	1	28
28	1	0	0	0	2	1	30
29	0	0	5	3	2	1	31
30	0	0	0	4	9	1	31
31	0	0	0	0	0	0
